
 102   30
  10   10   10   10   10   10   10   10   10   10   10   10   10   10   10   10   10   10   10   10   10   10   10   10   10   10   10   10   10   10

   0   0   0   0   0   0   0   0   0   0   0   0   0   0   0   0   0   0   0   0   0   0   0   0   0   0   0   0   0   0   0  30 2 3 4 5 6 7 8 9 11 12 13 14 15 16 17 18 19 20 21 22 24 25 26 27 29 30 31 32 34 35 
   1   0   0   0   0   0   0   0   0   0   0   0   0   0   2   0   0   0   0   0   1   0   0   0   0   0   1   0   0   0   3  13 66 64 58 57 56 53 51 47 43 36 33 23 10 
   7   0   0   0   0   0   0   0   0   0   0   0   0   0   0   0   0   0   1   0   0   0   0   0   1   0   0   0   1   0   0  20 101 75 71 66 64 63 58 56 54 53 50 49 48 46 44 43 41 40 37 33 
   4   1   0   0   0   0   2   0   0   0   0   3   0   1   0   0   0   0   0   0   0   1   0   0   0   0   0   0   0   0   6  17 72 66 60 58 57 56 51 50 49 47 45 44 41 38 37 36 33 
  10   0   0   0   0   0   0   0   0   0   0   0   0   0   0   0   0   0   0   1   0   0   0   0   0   0   0   0   0   2   0  19 101 98 94 75 72 71 70 66 65 64 63 60 56 51 50 49 47 46 33 
   7   0   0   0   0   0   2   0   0   0   0   0   1   0   0   0   0   0   0   0   0   0   0   0   0   0   0   1   0   0   0  12 75 65 62 56 55 50 49 46 43 41 39 37 
   7   0   0   0   0   0   0   0   0   0   5   6   0   6   0   0   0   0   6   0   0   0   0   0   0   0   0   0   0   0   0  18 101 96 75 74 72 71 69 66 64 62 60 59 55 50 46 44 43 41 
   1   0   0   0   0   0   0   0   0   0   0   0   0   0   0   0   0   0   9   0   0   5   0   0   0   0   0   0   5   0   0  15 101 100 98 94 74 72 71 61 60 53 50 49 43 36 33 
   3   5   1   5   1   1   0   0   2   0   0   3   0   0   0   0   0   0   0   0   0   0   0   0   0   0   0   7   0   7   0  16 101 99 98 95 74 63 60 57 52 48 47 46 45 43 37 36 
   3   0   0   0   0   0   0   0   0   0   2   0   0   0   0   0   0   0   8   0   0   8   0   0   0   1   0   0   0   0   0  20 101 100 98 96 94 75 74 73 72 71 70 69 65 63 62 60 55 50 48 46 
   8   0   0   0   0   0   0   0   0   0   0   0   0   0   0   0   0   0   0   8   0   0   0   0   0   0   5   9   0  10   0  16 100 99 98 94 87 75 74 73 71 66 60 57 55 52 44 36 
   3   0   0   2   0   0   0   0   0   0   0   0   0   7   0   0   0   0   0   0   0   0   0   0   4   0   0   6   0   0   0  12 101 88 86 75 71 65 64 62 59 58 55 28 
   7   0   0   0   0   0   6   0   0   0   0   0   0   0   9   0   0   0   0   0   0   0   2   0   0   0   0   0   5   0   0  15 100 99 98 87 84 73 72 71 70 66 61 59 57 55 38 
   7   0   0   0   2   0   0   0   0   0   0   0   0   0   0   0   0   3   6   8   0   0   0   0   0   0   0   0   0   0   0  16 101 100 96 94 75 74 73 72 69 63 62 61 59 52 50 45 
   9   0   0   0   0   0   0   0   0   0   0   0   6   0   0   0   0   0   0   0   0   0   0   0   7   0   0   0   4   0   5  15 101 95 94 74 73 71 68 62 61 51 48 47 45 43 42 
   6   0   6   4   0   0   0   1   0   0   0   0   0   0   0   0   0   0   0   0   0   4   0   0   0   0   0   0   0   7   0  12 99 98 95 92 84 71 66 62 59 57 38 37 
   4   0   0   0   0   0   0   0   0   2   0   0   0   6   0   0   0   0   0   0   3   0   0   0  10   0   0   0   0   0   0  23 100 99 98 96 95 94 93 91 88 86 84 82 81 75 73 72 70 66 65 62 60 59 58 
   9   0   0   0   0   0   0   8   0   0   0   0   0   0   0   0   0   0   0   0   0   0   0   0   0   3   0   0   0   0   0  12 98 90 73 71 69 66 65 63 57 54 46 37 
   9   0   0   0   4   0   0   5   0   0   9   0   0   0   0   0   0   0   0   0   0   0   0   0   0   0   0   4   0   0   0  18 101 100 98 96 95 94 88 85 81 75 73 72 69 66 65 62 57 46 
   7   0   0   0   0   0   0   0   0   0   3   0   0   8   0   0   0   4   0   8   0   0   0   0   8   0   0   0   0   0   0  18 101 100 99 97 96 94 90 87 86 81 73 70 65 63 61 59 55 40 
   7   0   8   6   0   0   0   0   0   0   0   0   0   7   6   0   0  10   0   0   0   0   0   0   0   0   0   0   0   0   0  12 95 94 73 71 64 62 61 59 57 52 45 36 
   4   6   0   0   0   0   0   0   0   7   0   0   8   0   0   0   0   0   0   0   0   0   0   0   0   0   0   0   0   0   0  10 98 72 71 69 66 61 58 53 43 33 
  10   0   0   7   0   0   0   0   5   0  10  10   0   6   0   0   0   0   0   0   0   0   0   0   0   0   0   0   0   2   0  19 101 99 97 96 94 93 92 91 88 86 84 83 72 71 69 65 63 62 55 
   6   0   0   0   5   7   0   0   0   0   0  10   0   0   0   0   0   0   7   0   0   0   0   0   8   0   0   0   0   0   8  18 100 98 94 93 92 89 88 86 84 81 75 70 64 62 61 59 57 55 
   7   0   0   5   0   0   0   0   0   8   0   0   0   0   0   1   0   0   0   0   0   0   0   0   0   0   0   0   0   6   0  17 101 99 98 96 95 94 93 89 88 81 80 74 70 69 60 58 46 
   9   0   5   0   0   0   0   0  10  10   0   0   0   0   0   0   0   0   0   0   0   6   0   1   0   0   0   0   0  10   0  15 100 99 97 96 94 92 88 75 71 70 69 68 65 61 49 
   9   7   0   0   6   0   8   0   0   0   0   0   0   0   0   0   0   0   0   0  10   0   0   2   9   0   0   0   0   0   4  12 97 95 88 73 72 71 69 62 61 60 59 49 
   5   0   0   0   0   0   7   0   0   0   0   0   0   0   0   0   0   7   0   0   0   0   0   0   0   0   0   0   0   0   2  17 100 99 98 97 96 95 94 93 92 89 87 85 74 72 68 61 48 
   3   0   0   0   0   0   0   0   0  10   5   0   0   0   6   0   0   0   0   6   0   0   2   0   0   0   0   0   0   8   0  14 99 96 93 92 88 86 85 84 71 68 67 62 61 58 
   4   0   0   0   0   0   7   0   0   6   0   0   0   0   0   0   0   0   0   0   0   0   0   0   0   0   6   0   0   5   0  12 99 95 94 92 86 82 74 72 68 63 62 48 
   2   7   0   0   0   0   0   0   0   0   0   0   0   5   0   0   0   0   0   0   0   0   0   0   7   0   0   0   0   7   0  16 96 94 92 91 90 89 88 87 84 82 81 80 79 70 60 59 
   1   0   0   0   8   0   8  10   0   0   0   0   7   0   0   0   0   7   9   0   0   0   0   0   0   0   0   0   0   0   0  17 98 95 94 93 92 91 86 84 83 82 79 78 71 70 69 68 62 
   4   0   0   0   9   0   0   0   0   0   0   0   7   0   0   0   0   0   0   0   0   0   0   0   9   0   0   0   0   0  10  12 97 93 90 88 86 84 81 79 68 62 59 55 
  10   0   0   0   0   0   0   0   0   5   6   0   0   0   0   0   0   0   0   0   0   0   0   0   0   0   0   0   0   0   0  12 96 89 88 86 84 82 76 74 72 65 62 59 
  10   0   5   0   0   7   0   9   0   0   0   0   0   0   0   0   0   0   0   0   0   0   0   0   0   0   0   0   0   0   0  10 98 95 93 92 89 79 78 68 61 43 
   1   0   0   0   0   0   0   0   5   6   0   0   0   0   0   0   0   0   0   0   0   0   7   0   0   0   7   0   0   0   0  13 96 93 90 89 88 86 84 83 81 70 69 67 65 
   7   0   0   0   0   0   0   0   0   0   0   0   0   0  10   0   0   0   0   8   0   0   0   0   0   0   0   7   0   0   0  13 100 97 96 94 93 89 87 80 79 76 70 67 61 
   4   0   0   0   0   0   0   0   0   0   0   0   0   0   0   0   0   0   0   0   9   0  10   0   0   0   0   0   0   0   0  13 101 96 94 93 91 88 86 85 81 78 77 69 65 
   7   0   8   0   0   0   0   0   0   0   0   0   0   0   0   0   0   0   0   0   0   0   5   0   7   0   0   0   0   0   0  10 93 89 87 86 84 79 73 72 71 69 
   2   0   0   0   0   0   0   0   0   0   0   0   0   0   0   0   0   0   0   0   0   0   7   0   0   0   0   0   0   0  10  11 98 95 93 88 84 83 82 79 77 69 67 
   3   0   0   4   0   0   0   0   0   0   0   0   0   0   0   0   0   0   0   0   0   0   0   0   0   0   0   0   0   0   0  10 98 94 85 82 81 79 77 73 68 67 
   2   0   0   0   0   0   0   0   0   0   0   0   0   8   0   0   0   0   0   0   0   0   0   0   0   0   0   0   5   0   0  11 99 97 89 88 86 83 81 80 79 78 69 
   2   0   0   0   0   0   0   7   0   0   0   0   0   0   0   0   0   0   6   0   0   0   0   0   0   0   7   6   0   0   0  10 91 88 87 86 85 84 83 81 77 76 
   9   0   0   0   0   0   0   0   4   5   0   0   0   0   0   0   0   0   0   0   5   0   0   0   0   0   6   0   5   0   0   9 91 90 89 88 85 82 80 78 68 
   9   0   0   0   0   0   0   0   0   0   0   0   7   0   0   6   0   0   0   0   0   7   0   0   0   0   6   0   4   0   5   8 91 87 86 85 84 81 76 65 
   1   0   0   0   0   0   7   0   0   0   9   0   0   0   4   0   0   0   0   0   0   6   0   0   0   0   0   8   0   0   0   7 92 86 84 83 79 78 61 
   5   0   0   0   0   0   0   0   0   0   0   0   0   0  10   7   0   0   0   4   0   0   0   0   0   0   0   0   0   0   0   8 93 92 91 89 86 79 77 69 
   7   0   0   0   0   0   0   0   0   0   0   0   0   0   0   0   1   0   0   0   0   0   0   0   0   0   0   0   0   0   0   7 90 84 83 81 80 77 67 
   1   5   0   7  10   5   0   0   0   0   0   0   0   0   0   0   0   0   0   0   0   0   0   0   0   0   0   0   0   0   0   7 89 87 86 85 84 77 67 
   3   9   0   0   0   0   0   6   0   0   0   0   0   0   0   0   0   6   0   0   0   0   0   0   3   0   0   0   0   0   0   7 99 93 88 87 82 78 77 
   9   0   0   0   0   0   0   0   0   0  10   0   0   0   0   0   0   0   0   0   0   0   0   8   9   0   0   0   0   6   0   7 90 88 87 83 79 77 76 
   4   0   0   8   0   0   0   0   0   0   0   0   0   0   6   0   1   7   0   0   0   0   0   0   4   0   0   0   8   0   0   5 93 90 77 68 67 
   2   0   0   0   0   0   0   0  10   0   0   0   0   0   0   0   0   0   0   0   0   0   0   5   0   5   0   0   0   0   0   5 95 92 82 76 67 
   2   0   0   0   0   0   4   0   0   0   0   0   0   6   0   0   0   0   0   0   0   0   0   0   0   0   7   0   0   0   0   5 88 81 80 76 67 
   2   0   0   5   0   0   0   0   4   0   0   0   0   0   0   0   0   0   0   0   0   0   0   6   0   7   5   5   0   0   0   4 95 82 77 67 
   4   0   0   0   0   0   0   0   0   0   0   0   0   0   0   0   0   0   6   0   0   0   0   0   0   0   0   0   0   0   0   4 96 80 78 74 
   2   3   0   0   0   0   0   0   0   0   0   0   0   0   0   0   0   9   0   7   0  10   4   0   0   9   0   0   6   0   0   3 79 68 67 
   4   0   0   0   0   0   0   0   0   0   0   0   0   0   0   0  10   0   3   0   0   8   0  10   0   0   5  10   7   0   0   4 90 83 79 76 
   7   0   0   6   0   0   0   0   0   0   6   0   0   0   6   0   0   0   0   0   0   5   0   0   0   0   0   0   9   0   0   3 85 83 67 
   2   0   0   0   0   0   0   0   0   0   4   0   5   0   0   0   0   0   0   0   0   0   0  10   0   0   0   0   0   0   0   3 85 83 68 
   6   0   0   0   0   0  10   0   7   0   0   4   7   0   0   0   0   0   5   5   0   0   0   0   0   0   0   0   0   0   0   3 91 82 77 
   8   0   0   0   0   0   0   0   0   4   0   0   0   0   0   0   0   0   0   0   0   5   0   0   0   0   6   0   4   0   0   3 87 80 77 
  10   0   8  10   0   0   0   0   0   0   0   0   0   0   3   0   0   0   0   0   0   0   0   5   0   0   0   0   5   0   0   3 89 85 76 
   6   0   0   8   0   0   0   0   0   0   0   0   0   0   0   0   0   4   7   0   0   0   0   0   4   0   0   0   0   0   0   2 77 68 
   2   0   0   0   0   0   0   0   0   0   0   0   6   0   0   0   0   0   0   2   0   0   0   4   0   0   0   0   0   0   0   2 80 79 
   9   0   0   0   0   7   0   4   0   0   0   0   0   0   0   6   0   0   0   0   0   0   0  10   0   0   0   0   0   0   0   2 97 89 
   9   0   0   0   0   0   0   5   0   0   0   0   0   8   0   0   0   0   0   0   0   0   0   0   0   0   0   0   0   0   0   1 78 
   2   0   0   0   0   0   0   0   0   0   0   4   0   0   7   0   0   0   0   0   0   0   0   0   0   0   8   0   0   0   0   1 76 
   6   0   0   0   0   0   5   8   0   0   6   0   0   0   0   0   0   0   0   6   0   6   0   0   0   7   0   0   0   0   0   1 76 
   3   0   0   0   0   0   0   0   0   0   0   0   0   0   0   0   0   0   0   5   0   0   0   0   0   0   0   0   0   0   0   1 77 
   7   0   0   9   0   7   0   0   7   5   0   0   0   0   0   0   5   0   0   0   0   0   0   0   0   0   0   0   0   0   8   1 81 
  10   0   0   0   0   0   0   0   0   6   0   0   0   0   0   0   0   0   0   0   5   0   0   0   0   0   0   0   0   0   7   1 90 
   2   0   5   0   8   0   0   0   0   0   0   0   0   0   0   0   0   0   0   0   0   0   0   0   0   0   0   0   9   0   8   1 92 
   1   0   0   5   0   0   0   0   0   0   0   0   0   0   0   0   0   0   8   0   0   0   0   0   0   0   7   5   9   0   0   1 77 
   5   0   0   0   0   0   0   0   0   0   0   0   0   0   0   0   0   0   0   0   0   0   0   0   0   6   0   0   0   0   0   1 90 
   6   0   0   0   7   0   0   2   4   0   0   0   0   0   0   0   0   0   0   0   0   0   0   0   0   0   0   0   0   0   0   1 102
  10   7   0   0   0   0   7   0   0   0   0   0   0   6   0   0   0   0   0   0   0   0   0   0   0   0   0   0   8   0   0   1 102
   1   0   0   0   0   0   0   0   0   0   0   0   0   0   0   0   0   0   0   0   0   0   0   0   6   0   0   4   0   0   0   1 102
   4   0   0   3   5   0   0   0   0   6   0   0   0   0   0   7   0   0   0   0   0   0   0   0   0   0   0   0   0   7   0   1 102
   3   0   0   0   0   0   0   0   0   0   3   0   0   5   0   0   0   0   0   0   0   0   3   0   0   0   0   0   0   0   0   1 102
  10   0   0   0   0   0   0   5   0   0   0   0   0   0   0   0   0   0   6   0   0   2  10   0   0   0   0   0   0   0   0   1 102
   1   0   6   0   7   0   0   0   0   0   0   8   0   0   0   0   0   0   0   0   0   0   6   5   0   0   0   0   0   0   0   1 102
   8   0   0   0   0  10   0   0   0   0   0   0   0   0   0   0   0   0   0   0   0   0   0   0   0   5   0   5   0   0   0   1 102
   6   0   0   0   0   0   0   0   0   0   0   0   0   0   0   0   0   0   0   0   0   9   0   0   0   0   0   0   0   0   0   1 102
   8   0   0   0   5   3   0   0   0   0   0   0   0   0   0   0   0   0   6   0   0   0   0   0   0   0   6   0   0   0   6   1 102
   2   0   0   0   0   0   0   0   0   0   6   0   0   0   0   0   0   0   0   0   0   0   0   6   0   0   0   0   0   0   0   1 102
   8   6   0   0   0   0   0   0   0   0   0   0   0   0   4   8   0   0   7   0   0   0   0   0   0   0   0   0   0   0   0   1 102
   1   0   0   0   6   0   0   0  10   0   0   0   0   0   0   0   0   0   0   0   0   0   0   0   0   8   0   0   0   0   0   1 102
   9   0   0   0   0   0   0   0   0   0   0   0   0   0   0   0   0   5   0   0   8   0   0   0   3   7   0   0   0   3   0   1 102
  10   7   0   0   0   8   0   0   0   0   0   0   0   0   0   0  10   0   0   0   6   0  10   0   0   0   0   0   8   0   0   1 102
   3   0   7   0   0   0   0   0   0   0   0   9   0   0   0   0   0   0   0   0   0   0   0   0   0   0   8   0   6   0   0   1 102
   1   0   0   8   0   0   0   0   0   0   0   0   0   0   0   5   0   0   0   7   0   5   0   0   0   0   0   0   0   0   0   1 102
   3   0   0   0   0   0   0   0   0   0   0   0   0   0   0   0   0   0   0   0   0   0   0   0   0   0   0   0   0   0   0   1 102
   7   0   0   0   0   0   0   0   0   0   0   0   0   0   0   0   9   0   0   0   0   0   0   0   0   0   0   0   0   0   0   1 102
   9   0   0   0   7   0   0   0   0   0   0   0   0   0   0   0   0   4   2   0   7   0   0   0   0   0   0   0   0   0   3   1 102
   4   0   0   0   0   7   0   0   0   0   0   0   0   0   0   0   0   0   0   0   0   0   0   0   0   8   0   0   0   0   0   1 102
   4   0   0   0   0   0   5   7   8   0   0   0   0   0   0   8   0   0   0   0   0   0   0   0   6   0   0   0   0   0   0   1 102
   5   8   0   0   0   4   0   0   2   0   0   0   0   0   5   0   0   0   0   0   0   0   0   0   0   0   0   0   0   0   0   1 102
  10   7   0   0   0   0   0   7   0   0   0   0   0   0   0   0   0   0   0   0   0   0   0   0   0   0   0   7   0   0   0   1 102
   6   0   0   0   0   0   0   0   0   0   0   3   0   0   0   0   0   0   0   0   0   9   0   0   0   0   0   0   0   0   0   1 102
   9   0   7   0   0   0   0   0   0   4   0   0   0   5   0   0   0   0   0   9   0   0   0   0   3   0   0   0   0   4   5   1 102
   0   0   0   0   0   0   0   0   0   0   0   0   0   0   0   0   0   0   0   0   0   0   0   0   0   0   0   0   0   0   0   0 
